50
    1    52    15
    2    60    64
    3    34    74
    4    74    95
    5    79    48
    6     7    37
    7    63    29
    8    45    43
    9    44    61
   10    64    78
   11     9    55
   12    57    83
   13     5    16
   14    72    84
   15    13    28
   16    26    28
   17    88    25
   18    32    40
   19    12    89
   20    39    30
   21    75    53
   22    81    23
   23    26    76
   24    58    54
   25    23    40
   26    84    16
   27    42    58
   28    21    55
   29    52    53
   30    58    95
   31    83    93
   32    34    63
   33    70    67
   34    21    13
   35     1    48
   36    39    13
   37    55    24
   38    57    48
   39    76   100
   40    17    34
   41    10    23
   42    71    57
   43    75     6
   44    33    45
   45    20    35
   46    41    94
   47     6    13
   48    98    29
   49    94    95
   50    71    52
2080
